NbItems = 5;
RollWidth = 110;
Size = [20, 45, 50, 55, 75];
Amount = [48, 35, 24, 10, 8];

Patterns = { <0, 1, [1, 0, 0, 0, 0]>,
<1, 1, [0, 1, 0, 0, 0]>,
<2, 1, [0, 0, 1, 0, 0]>,
<3, 1, [0, 0, 0, 1, 0]>,
<4, 1, [0, 0, 0, 0, 1]> };

Duals = [0.0, 0.0, 0.0, 0.0, 0.0];
